&input
 fildyn='PbTe.dyn', flfrc='PbTe.fc', zasr='crystal'/