&CONTROL
wf_collect=.false.,
calculation ='scf',
restart_mode = 'from_scratch',
prefix='GeTe_d',
pseudo_dir='/work/02599/asmiller/pseudo/gbrv/pbe_GBRV/',
tstress=.true.,
tprnfor=.true.,
etot_conv_thr=1.0D-4,
forc_conv_thr=5.0D-8,
/
&SYSTEM
input_dft='pbesol',
ibrav=0,
celldm(1)=11.35422879d0,
nat=2,
ntyp=2,
ecutwfc=50,
ecutrho=600,
occupations = 'fixed',
/
&ELECTRONS
electron_maxstep=100,
conv_thr = 1.0D-10,
mixing_mode = 'plain',
mixing_beta = 0.7d0,
diagonalization = 'cg',
diago_cg_maxiter = 100
/
&IONS
ion_dynamics='bfgs',
/
&CELL
cell_dynamics='bfgs',
press=0.d0
/
ATOMIC_SPECIES
Ge 72.63d0 ge_pbe_v1.uspp.F.UPF
Te 127.6d0 te_pbe_v1.uspp.F.UPF

CELL_PARAMETERS
   0.000000000d0  -0.399246222d0   0.578673564d0
   0.345757371d0   0.199623111d0   0.578673564d0
  -0.345757371d0   0.199623111d0   0.578673564d0

ATOMIC_POSITIONS crystal
Ge       0.006052773d0   0.006052773d0   0.006052773d0
Te       0.483947227d0   0.483947227d0   0.483947227d0

K_POINTS automatic
12 12 12 0 0 0 

