&input
 fildyn='GeTe_d.dyn', flfrc='GeTe_d.fc', zasr='crystal'/