&input
 fildyn='PbS.dyn', flfrc='PbS.fc', zasr='crystal'/
