Dispersion
&inputph
tr2_ph=1.0d-16,
epsil=.true.,
ldisp=.true.,
nq1=4, nq2=4, nq3=4,
prefix='PbS',
fildyn='PbS.dyn',
/


