&input
 fildyn='PbSe.dyn', flfrc='PbSe.fc', zasr='crystal'/